DIMENSION: 8
EDGE_WEIGHT_TYPE: EXPLICIT
EDGE_WEIGHT_FORMAT: FULL_MATRIX
EDGE_WEIGHT_SECTION:
32767 32767 32767 32767 84 88 32767 75 
32767 32767 32767 32767 32767 24 100 32767 
32767 32767 32767 32767 32767 32767 12 77 
32767 32767 32767 32767 32767 32767 32767 32767 
84 32767 32767 32767 32767 32767 32767 32767 
88 24 32767 32767 32767 32767 32767 32767 
32767 100 12 32767 32767 32767 32767 32767 
75 32767 77 32767 32767 32767 32767 32767 
EOF